cases/matpower/case5_tnep.m
ipopt
QCRM
[info | PowerModels]: extending matpower format with data: ne_branch 3x15
[warn | PowerModels]: the dc line model is not meant to be used bi-directionally when loss1 > 0, be careful interpreting the results as the dc line losses can now be negative. change loss1 to 0 to avoid this warning
[warn | PowerModels]: the to bus voltage setpoint on dc line 1 does not match the value at bus 5
[info | PowerModels]: removing 1 cost terms from generator 4: [4000.0, 0.0]
[info | PowerModels]: removing 1 cost terms from generator 1: [1400.0, 0.0]
[info | PowerModels]: removing 1 cost terms from generator 5: [1000.0, 0.0]
[info | PowerModels]: removing 1 cost terms from generator 2: [1500.0, 0.0]
[info | PowerModels]: removing 1 cost terms from generator 3: [3000.0, 0.0]
[info | PowerModels]: removing 1 cost terms from dcline 1: [4000.0, 0.0]

******************************************************************************
This program contains Ipopt, a library for large-scale nonlinear optimization.
 Ipopt is released as open source code under the Eclipse Public License (EPL).
         For more information visit http://projects.coin-or.org/Ipopt
******************************************************************************

This is Ipopt version 3.13.2, running with linear solver mumps.
NOTE: Other linear solvers might be more efficient (see Ipopt documentation).

Number of nonzeros in equality constraint Jacobian...:      130
Number of nonzeros in inequality constraint Jacobian.:      264
Number of nonzeros in Lagrangian Hessian.............:       37

Total number of variables............................:       73
                     variables with only lower bounds:        0
                variables with lower and upper bounds:       68
                     variables with only upper bounds:        0
Total number of equality constraints.................:       36
Total number of inequality constraints...............:      102
        inequality constraints with only lower bounds:       49
   inequality constraints with lower and upper bounds:        0
        inequality constraints with only upper bounds:       53

iter    objective    inf_pr   inf_du lg(mu)  ||d||  lg(rg) alpha_du alpha_pr  ls
   0  5.3659985e+02 4.83e+01 4.27e+01  -1.0 0.00e+00    -  0.00e+00 0.00e+00   0
   1  8.3380366e+02 4.76e+01 4.29e+01  -1.0 5.00e+00    -  4.16e-03 1.49e-02h  1
   2  9.8990760e+02 4.71e+01 4.21e+01  -1.0 7.11e+00    -  1.58e-02 1.19e-02h  1
   3  1.9623132e+03 4.47e+01 4.26e+01  -1.0 5.41e+00    -  1.57e-02 4.96e-02h  1
   4  2.9088147e+03 4.24e+01 4.20e+01  -1.0 4.88e+00    -  2.94e-02 5.12e-02h  1
   5  5.7150991e+03 3.58e+01 3.90e+01  -1.0 5.59e+00    -  1.06e-01 1.56e-01h  1
   6  1.0861500e+04 2.41e+01 3.94e+01  -1.0 9.44e+00    -  1.18e-01 3.26e-01H  1
   7  1.2064006e+04 2.22e+01 2.21e+01  -1.0 5.62e+00    -  3.32e-01 8.13e-02h  1
   8  1.8307424e+04 1.22e+01 1.22e+01  -1.0 5.57e+00    -  4.48e-01 4.50e-01h  1
   9  1.8373677e+04 1.21e+01 1.75e+01  -1.0 4.59e+00    -  5.12e-02 8.68e-03h  1
iter    objective    inf_pr   inf_du lg(mu)  ||d||  lg(rg) alpha_du alpha_pr  ls
  10  2.0481433e+04 9.54e+00 1.40e+01  -1.0 4.57e+00    -  3.59e-03 2.10e-01h  1
  11  2.6256111e+04 2.65e+00 2.91e+01  -1.0 3.86e+00    -  2.03e-01 7.23e-01h  1
  12  2.6314400e+04 2.58e+00 4.67e+01  -1.0 1.45e+00   0.0 8.73e-01 2.64e-02h  1
  13  2.6320788e+04 2.56e+00 1.15e+03  -1.0 1.71e+01  -0.5 3.21e-01 5.66e-03h  1
  14  2.6320919e+04 2.54e+00 1.56e+03  -1.0 1.67e+02    -  1.25e-01 9.35e-03h  1
  15  2.6321575e+04 2.53e+00 5.73e+03  -1.0 4.99e+01    -  3.34e-02 1.67e-03h  1
  16  2.6321979e+04 2.53e+00 2.04e+04  -1.0 7.46e+01    -  3.31e-02 1.31e-03h  4
  17  2.6322019e+04 2.53e+00 4.25e+04  -1.0 7.56e+01    -  1.32e-02 1.40e-04h  7
  18  2.6322039e+04 2.53e+00 9.61e+04  -1.0 1.12e+02    -  1.55e-02 7.18e-05h  8
  19  2.6322049e+04 2.53e+00 2.04e+05  -1.0 1.53e+02    -  1.38e-02 3.73e-05h  9
iter    objective    inf_pr   inf_du lg(mu)  ||d||  lg(rg) alpha_du alpha_pr  ls
  20  2.6322059e+04 2.53e+00 2.91e+05  -1.0 1.61e+02    -  5.29e-03 3.64e-05h  9
  21  2.6322069e+04 2.53e+00 8.32e+05  -1.0 1.51e+02    -  2.26e-02 3.70e-05h  9
  22  2.6322079e+04 2.53e+00 1.23e+06  -1.0 1.30e+02    -  5.87e-03 3.71e-05h  9
  23  2.6322098e+04 2.53e+00 2.43e+06  -1.0 1.22e+02    -  1.16e-02 7.66e-05h  8
  24  2.6322131e+04 2.53e+00 2.72e+06  -1.0 3.70e+02    -  1.51e-03 7.88e-05h  8
  25  2.6323033e+04 2.53e+00 2.69e+06  -1.0 6.89e+03    -  8.94e-05 2.05e-04f  5
  26  2.6336387e+04 2.52e+00 4.06e+06  -1.0 1.07e+04    -  7.62e-03 1.99e-03w  1
  27  2.6337539e+04 2.51e+00 1.41e+07  -1.0 1.74e+02    -  2.54e-02 6.15e-03w  1
  28  2.6337470e+04 2.50e+00 1.41e+08  -1.0 1.56e+02    -  1.87e-02 1.85e-03w  1
  29  2.6324702e+04 2.53e+00 4.48e+06  -1.0 2.72e+02    -  7.62e-03 2.49e-04f  3
iter    objective    inf_pr   inf_du lg(mu)  ||d||  lg(rg) alpha_du alpha_pr  ls
  30  2.6324798e+04 2.53e+00 5.18e+06  -1.0 3.06e+03    -  1.72e-03 4.79e-05h  8
  31  2.6324894e+04 2.53e+00 1.06e+07  -1.0 2.71e+03    -  1.12e-02 5.37e-05h  8
  32  2.6324978e+04 2.53e+00 1.40e+07  -1.0 1.86e+03    -  3.54e-03 7.18e-05h  8
  33  2.6325055e+04 2.53e+00 4.26e+07  -1.0 1.71e+03    -  2.18e-02 7.20e-05h  8
  34  2.6325113e+04 2.53e+00 5.97e+07  -1.0 1.45e+03    -  4.33e-03 7.31e-05h  8
  35  2.6325166e+04 2.53e+00 2.35e+08  -1.0 1.40e+03    -  3.09e-02 7.30e-05h  8
  36  2.6325211e+04 2.53e+00 3.39e+08  -1.0 1.34e+03    -  4.72e-03 7.36e-05h  8
  37  2.6325255e+04 2.53e+00 1.34e+09  -1.0 1.32e+03    -  3.04e-02 7.33e-05h  8
  38  2.6325296e+04 2.53e+00 2.00e+09  -1.0 1.30e+03    -  5.10e-03 7.34e-05h  8
  39  2.6330483e+04 2.50e+00 5.10e+09  -1.0 1.29e+03    -  2.51e-02 9.35e-03w  1
iter    objective    inf_pr   inf_du lg(mu)  ||d||  lg(rg) alpha_du alpha_pr  ls
  40  2.6330645e+04 2.50e+00 1.48e+10  -1.0 4.12e+02    -  1.01e-03 3.24e-04w  1
  41  2.6330502e+04 2.50e+00 8.98e+09  -1.0 8.56e+03    -  1.28e-05 1.21e-04w  1
  42  2.6325377e+04 2.53e+00 6.94e+09  -1.0 4.46e+03    -  2.51e-02 1.46e-04h  6
  43  2.6325456e+04 2.53e+00 1.09e+10  -1.0 1.28e+03    -  5.74e-03 1.45e-04h  7
  44  2.6325533e+04 2.53e+00 7.87e+10  -1.0 1.26e+03    -  6.01e-02 1.43e-04h  7
  45  2.6325610e+04 2.53e+00 1.22e+11  -1.0 1.27e+03    -  5.37e-03 1.41e-04h  7
  46  2.6325685e+04 2.53e+00 3.07e+12  -1.0 1.25e+03    -  2.25e-01 1.39e-04h  7
  47  2.6327873e+04 1.75e+00 1.74e+12  -1.0 4.23e+00    -  9.27e-01 3.07e-01h  1
  48  2.6327895e+04 1.77e+00 1.74e+12  -1.0 4.53e+02    -  1.13e-04 1.13e-04s  9
  49  2.6327881e+04 1.76e+00 2.30e+12  -1.0 1.37e+01    -  2.56e-01 0.00e+00S  9
iter    objective    inf_pr   inf_du lg(mu)  ||d||  lg(rg) alpha_du alpha_pr  ls
  50  2.6327895e+04 1.77e+00 2.30e+12  -1.0 7.48e+01    -  5.00e-04 5.00e-04s 11
  51  2.6327676e+04 1.58e+00 3.56e+12  -1.0 3.93e+01    -  1.08e-01 0.00e+00S 11
  52  2.6327485e+04 1.51e+00 7.42e+12  -1.0 4.84e+00    -  8.52e-01 4.62e-02h  1
  53  2.6326190e+04 9.86e-01 1.24e+13  -1.0 5.71e+00    -  1.00e+00 3.47e-01h  1
  54  2.6326134e+04 2.42e+00 5.50e+11  -1.0 5.15e-03  11.4 9.56e-01 1.00e+00h  1
  55  2.6332571e+04 2.13e+00 7.31e+11  -1.0 8.13e+01    -  1.77e-01 1.22e-01h  1
  56  2.6332628e+04 2.12e+00 5.47e+12  -1.0 2.20e+01    -  5.99e-01 4.47e-03h  1
  57  2.6332056e+04 1.59e+00 3.35e+12  -1.0 7.62e-01    -  9.37e-02 2.48e-01h  1
  58  2.6332053e+04 1.59e+00 5.14e+13  -1.0 2.09e+02    -  6.71e-04 2.12e-05h  1
  59r 2.6332053e+04 1.59e+00 1.00e+03  -0.4 0.00e+00    -  0.00e+00 2.68e-07R  2
iter    objective    inf_pr   inf_du lg(mu)  ||d||  lg(rg) alpha_du alpha_pr  ls
  60r 2.6332053e+04 1.52e+00 1.26e+03  -0.4 1.50e+02    -  1.13e-01 1.64e-03f  1
  61r 2.6332202e+04 4.28e-01 1.02e+03  -0.4 1.73e+00    -  8.96e-02 1.16e-01f  1
  62r 2.6331022e+04 4.24e-01 1.00e+03  -0.4 6.14e-01    -  3.30e-01 2.83e-02f  1
  63r 2.6334417e+04 3.54e-01 8.35e+02  -0.4 1.43e+00    -  3.62e-02 2.23e-01f  1
  64  2.6335326e+04 3.54e-01 1.14e+02  -1.0 3.60e+00    -  7.64e-03 6.64e-04h  1
  65  2.6335144e+04 3.53e-01 5.04e+02  -1.0 1.34e+01    -  6.80e-03 2.62e-04h  1
  66r 2.6335144e+04 3.53e-01 9.99e+02  -0.5 0.00e+00    -  0.00e+00 4.67e-07R  8
  67r 2.6335697e+04 3.53e-01 9.97e+02  -0.5 6.96e+01    -  7.67e-03 2.23e-03f  1
  68r 2.6338799e+04 3.49e-01 9.85e+02  -0.5 1.10e+01    -  5.11e-03 1.27e-02f  1
  69r 2.6351271e+04 3.33e-01 9.62e+02  -0.5 1.10e+01    -  2.34e-02 5.29e-02f  1
iter    objective    inf_pr   inf_du lg(mu)  ||d||  lg(rg) alpha_du alpha_pr  ls
  70r 2.6362168e+04 3.15e-01 8.82e+02  -0.5 7.22e+00    -  2.47e-01 5.33e-02f  1
  71  2.6362361e+04 3.15e-01 1.98e+03  -1.0 2.33e+00    -  7.13e-01 6.26e-04h  1
  72  2.6362357e+04 3.15e-01 9.28e+03  -1.0 3.84e+02    -  1.09e-02 5.80e-05h  6
  73  2.6362355e+04 3.15e-01 4.29e+04  -1.0 4.16e+02    -  1.25e-02 3.59e-05h  7
  74  2.6362353e+04 3.15e-01 1.75e+05  -1.0 4.00e+02    -  9.85e-03 3.60e-05h  7
  75  2.6362351e+04 3.15e-01 9.94e+05  -1.0 3.62e+02    -  1.39e-02 1.79e-05h  8
  76  2.6361979e+04 3.14e-01 9.92e+05  -1.0 2.96e+02    -  2.30e-03 2.30e-03s 14
  77r 2.6361979e+04 3.14e-01 1.00e+03  -0.5 0.00e+00    -  0.00e+00 0.00e+00R  1
  78r 2.6362247e+04 3.11e-01 1.12e+03  -0.5 6.13e+00    -  4.70e-01 9.22e-03f  1
  79r 2.6384628e+04 4.50e-01 5.84e+02  -0.5 4.07e+00    -  7.02e-01 4.26e-01f  1
iter    objective    inf_pr   inf_du lg(mu)  ||d||  lg(rg) alpha_du alpha_pr  ls
  80r 2.6490900e+04 3.71e-01 5.38e+02  -0.5 1.81e+00    -  2.59e-01 1.00e+00f  1
  81r 2.6486515e+04 3.77e-01 1.42e+02  -0.5 3.79e-02   2.0 7.74e-01 1.00e+00f  1
  82r 2.6500483e+04 3.73e-01 2.45e+02  -0.5 2.52e+00    -  4.07e-01 1.00e+00f  1
  83r 2.6528488e+04 3.31e-01 4.90e+01  -0.5 1.58e+00    -  8.64e-01 1.00e+00f  1
  84r 2.6533292e+04 2.96e-01 1.63e+00  -0.5 8.86e-01    -  1.00e+00 1.00e+00f  1
  85r 2.6492624e+04 3.95e-01 6.64e+00  -1.9 1.21e+00    -  6.99e-01 7.25e-01f  1
  86r 2.6481393e+04 5.00e-01 2.55e+01  -1.9 8.18e-01    -  8.86e-01 1.00e+00f  1
  87r 2.6458760e+04 5.06e-01 7.65e-01  -1.9 1.56e+00    -  1.00e+00 1.00e+00f  1
  88r 2.6449376e+04 5.08e-01 1.07e-01  -1.9 1.48e-01    -  1.00e+00 1.00e+00h  1
  89r 2.6413145e+04 5.19e-01 2.22e+00  -2.9 8.59e-01    -  1.00e+00 9.47e-01f  1
iter    objective    inf_pr   inf_du lg(mu)  ||d||  lg(rg) alpha_du alpha_pr  ls
  90r 2.6411234e+04 5.21e-01 6.70e+01  -2.9 1.48e-02    -  4.19e-01 1.00e+00h  1
  91r 2.6410474e+04 5.21e-01 8.78e-03  -2.9 1.83e-02    -  1.00e+00 1.00e+00h  1
  92r 2.6390568e+04 5.22e-01 2.48e+01  -4.3 4.22e-01    -  9.65e-01 7.29e-01f  1
  93r 2.6385189e+04 5.22e-01 8.78e+00  -4.3 6.16e-02    -  1.00e+00 9.35e-01f  1
  94r 2.6378661e+04 5.22e-01 1.69e-03  -4.3 1.26e-01    -  1.00e+00 1.00e+00f  1
  95r 2.6366938e+04 5.22e-01 7.85e-01  -6.4 2.07e-01    -  9.73e-01 9.35e-01h  1
  96r 2.6365416e+04 5.22e-01 1.12e-05  -6.4 1.46e-02    -  1.00e+00 1.00e+00h  1
  97r 2.6363537e+04 5.22e-01 3.34e-06  -6.4 7.90e-02    -  1.00e+00 1.00e+00h  1
  98r 2.6363456e+04 5.22e-01 4.94e-07  -6.4 2.02e-02    -  1.00e+00 1.00e+00h  1
In iteration 98, 1 Slack too small, adjusting variable bound
  99r 2.6362164e+04 5.22e-01 6.21e+00  -9.0 6.22e-02    -  9.81e-01 6.74e-01h  1
iter    objective    inf_pr   inf_du lg(mu)  ||d||  lg(rg) alpha_du alpha_pr  ls
 100r 2.6361613e+04 5.22e-01 4.84e+00  -9.0 6.00e-03    -  1.00e+00 9.24e-01h  1
 101r 2.6361535e+04 5.22e-01 2.41e+01  -9.0 3.36e-02    -  9.24e-01 1.00e+00f  1

Number of Iterations....: 101

                                   (scaled)                 (unscaled)
Objective...............:   6.5903856129313363e+02    2.6361542451725345e+04
Dual infeasibility......:   1.0000000000019929e+02    4.0000000000079717e+03
Constraint violation....:   5.2225775697796584e-01    5.2225775697796584e-01
Complementarity.........:   1.0650625468399430e-09    4.2602501873597718e-08
Overall NLP error.......:   1.0000000000019929e+02    4.0000000000079717e+03


Number of objective function evaluations             = 363
Number of objective gradient evaluations             = 73
Number of equality constraint evaluations            = 363
Number of inequality constraint evaluations          = 363
Number of equality constraint Jacobian evaluations   = 106
Number of inequality constraint Jacobian evaluations = 106
Number of Lagrangian Hessian evaluations             = 102
Total CPU secs in IPOPT (w/o function evaluations)   =      0.488
Total CPU secs in NLP function evaluations           =      0.211

EXIT: Converged to a point of local infeasibility. Problem may be infeasible.
Time to Solution........:1.4994080066680908
